3
40
11248
[[819,202,363,748,105,852,492,978,810,933,668,159,928,272,612,864,502,280, 25,114,811,890,962,534,683,112,940,479,779,  1,388,224,450,777,447, 94,966,850,995,239],
 [333,914,651,878,974,434,141,307,284,143,669,669,140,893, 56,143,680,785,162,608,495,333,905,840,707,695, 11,239,285,453,202,442,474,881,337,243,656,936,176,624],
 [575,931,939, 52, 62,381,131,242,191,790,632,631,574,295,664,259,435,972,174,853,962,509, 77, 76, 41,675,331,925,164,118,321,221,291, 80,685,717,614,732,300,900]]
[574,831,701,984,350,722,932,367,483,489,359,724,518,808,438,837,761,250,474,607,186,805,352,682,898,916,696,403,424,287,406,268,128,886,797, 87,111,669,904,383]